============================[ Problem Statistics ]=============================|                                                                             ||  Number of variables:          4242                                         ||  Number of clauses:           10395                                         ||  Parse time:                   0.77 s                                       ||                                                                             |============================[ Search Statistics ]==============================| Conflicts |          ORIGINAL         |          LEARNT          | Progress ||           |    Vars  Clauses Literals |    Limit  Clauses Lit/Cl |          |===============================================================================|       100 |    1591     6600  1248001 |     2420      100     53 | 62.501 % ||       250 |    1591     6600  1248001 |     2662      250     75 | 62.495 % |===============================================================================restarts              : 4conflicts             : 422            (361 /sec)decisions             : 782            (0.00 % random) (669 /sec)propagations          : 13689          (11710 /sec)conflict literals     : 35359          (94.51 % deleted)CPU time              : 1.169 sSATISFIABLE